p cnf 367 1959
c p weight 18 0 0
c p weight -18 1 0
c p weight 19 1 0
c p weight -19 1 0
c p weight 41 0 0
c p weight -41 1 0
c p weight 42 1 0
c p weight -42 1 0
c p weight 47 0.70710678118654752440084436210485 0
c p weight 53 0.70710678118654752440084436210485 0
c p weight 59 0.70710678118654752440084436210485 0
c p weight 64 0 0
c p weight -64 1 0
c p weight 65 1 0
c p weight -65 1 0
c p weight 70 0.70710678118654752440084436210485 0
c p weight 73 0.9238795325112867384831361050601117312908172607421875 0
c p weight -73 1 0
c p weight 74 0.382683432365089781779232680491986684501171112060546875 0
c p weight -74 1 0
c p weight 80 0.9238795325112867384831361050601117312908172607421875 0
c p weight -80 1 0
c p weight 81 -0.382683432365089781779232680491986684501171112060546875 0
c p weight -81 1 0
c p weight 87 0.9238795325112867384831361050601117312908172607421875 0
c p weight -87 1 0
c p weight 88 0.382683432365089781779232680491986684501171112060546875 0
c p weight -88 1 0
c p weight 94 0.70710678118654752440084436210485 0
c p weight 100 0.70710678118654752440084436210485 0
c p weight 105 0 0
c p weight -105 1 0
c p weight 106 1 0
c p weight -106 1 0
c p weight 111 0.70710678118654752440084436210485 0
c p weight 114 0.9238795325112867384831361050601117312908172607421875 0
c p weight -114 1 0
c p weight 115 0.382683432365089781779232680491986684501171112060546875 0
c p weight -115 1 0
c p weight 118 0.9807852804032304305792422383092343807220458984375 0
c p weight -118 1 0
c p weight 119 0.195090322016128248083788321309839375317096710205078125 0
c p weight -119 1 0
c p weight 125 0.9807852804032304305792422383092343807220458984375 0
c p weight -125 1 0
c p weight 126 -0.195090322016128248083788321309839375317096710205078125 0
c p weight -126 1 0
c p weight 132 0.9807852804032304305792422383092343807220458984375 0
c p weight -132 1 0
c p weight 133 0.195090322016128248083788321309839375317096710205078125 0
c p weight -133 1 0
c p weight 139 0.9238795325112867384831361050601117312908172607421875 0
c p weight -139 1 0
c p weight 140 -0.382683432365089781779232680491986684501171112060546875 0
c p weight -140 1 0
c p weight 146 0.9238795325112867384831361050601117312908172607421875 0
c p weight -146 1 0
c p weight 147 0.382683432365089781779232680491986684501171112060546875 0
c p weight -147 1 0
c p weight 153 0.70710678118654752440084436210485 0
c p weight 159 0.70710678118654752440084436210485 0
c p weight 164 0 0
c p weight -164 1 0
c p weight 165 1 0
c p weight -165 1 0
c p weight 170 0.70710678118654752440084436210485 0
c p weight 173 0.9238795325112867384831361050601117312908172607421875 0
c p weight -173 1 0
c p weight 174 0.382683432365089781779232680491986684501171112060546875 0
c p weight -174 1 0
c p weight 177 0.9807852804032304305792422383092343807220458984375 0
c p weight -177 1 0
c p weight 178 0.195090322016128248083788321309839375317096710205078125 0
c p weight -178 1 0
c p weight 181 0.9951847266721969287317506314138881862163543701171875 0
c p weight -181 1 0
c p weight 182 0.098017140329560603628777926132897846400737762451171875 0
c p weight -182 1 0
c p weight 188 0.9951847266721969287317506314138881862163543701171875 0
c p weight -188 1 0
c p weight 189 -0.098017140329560603628777926132897846400737762451171875 0
c p weight -189 1 0
c p weight 195 0.9951847266721969287317506314138881862163543701171875 0
c p weight -195 1 0
c p weight 196 0.098017140329560603628777926132897846400737762451171875 0
c p weight -196 1 0
c p weight 202 0.9807852804032304305792422383092343807220458984375 0
c p weight -202 1 0
c p weight 203 -0.195090322016128248083788321309839375317096710205078125 0
c p weight -203 1 0
c p weight 209 0.9807852804032304305792422383092343807220458984375 0
c p weight -209 1 0
c p weight 210 0.195090322016128248083788321309839375317096710205078125 0
c p weight -210 1 0
c p weight 216 0.9238795325112867384831361050601117312908172607421875 0
c p weight -216 1 0
c p weight 217 -0.382683432365089781779232680491986684501171112060546875 0
c p weight -217 1 0
c p weight 223 0.9238795325112867384831361050601117312908172607421875 0
c p weight -223 1 0
c p weight 224 0.382683432365089781779232680491986684501171112060546875 0
c p weight -224 1 0
c p weight 230 0.70710678118654752440084436210485 0
c p weight 236 0.70710678118654752440084436210485 0
c p weight 241 0 0
c p weight -241 1 0
c p weight 242 1 0
c p weight -242 1 0
c p weight 247 0.70710678118654752440084436210485 0
c p weight 250 0.9238795325112867384831361050601117312908172607421875 0
c p weight -250 1 0
c p weight 251 0.382683432365089781779232680491986684501171112060546875 0
c p weight -251 1 0
c p weight 254 0.9807852804032304305792422383092343807220458984375 0
c p weight -254 1 0
c p weight 255 0.195090322016128248083788321309839375317096710205078125 0
c p weight -255 1 0
c p weight 258 0.9951847266721969287317506314138881862163543701171875 0
c p weight -258 1 0
c p weight 259 0.098017140329560603628777926132897846400737762451171875 0
c p weight -259 1 0
c p weight 262 0.9987954562051724050064649418345652520656585693359375 0
c p weight -262 1 0
c p weight 263 0.0490676743274180149345653489945107139647006988525390625 0
c p weight -263 1 0
c p weight 269 0.9987954562051724050064649418345652520656585693359375 0
c p weight -269 1 0
c p weight 270 -0.0490676743274180149345653489945107139647006988525390625 0
c p weight -270 1 0
c p weight 276 0.9987954562051724050064649418345652520656585693359375 0
c p weight -276 1 0
c p weight 277 0.0490676743274180149345653489945107139647006988525390625 0
c p weight -277 1 0
c p weight 283 0.9951847266721969287317506314138881862163543701171875 0
c p weight -283 1 0
c p weight 284 -0.098017140329560603628777926132897846400737762451171875 0
c p weight -284 1 0
c p weight 290 0.9951847266721969287317506314138881862163543701171875 0
c p weight -290 1 0
c p weight 291 0.098017140329560603628777926132897846400737762451171875 0
c p weight -291 1 0
c p weight 297 0.9807852804032304305792422383092343807220458984375 0
c p weight -297 1 0
c p weight 298 -0.195090322016128248083788321309839375317096710205078125 0
c p weight -298 1 0
c p weight 304 0.9807852804032304305792422383092343807220458984375 0
c p weight -304 1 0
c p weight 305 0.195090322016128248083788321309839375317096710205078125 0
c p weight -305 1 0
c p weight 311 0.9238795325112867384831361050601117312908172607421875 0
c p weight -311 1 0
c p weight 312 -0.382683432365089781779232680491986684501171112060546875 0
c p weight -312 1 0
c p weight 318 0.9238795325112867384831361050601117312908172607421875 0
c p weight -318 1 0
c p weight 319 0.382683432365089781779232680491986684501171112060546875 0
c p weight -319 1 0
c p weight 325 0.70710678118654752440084436210485 0
c p weight 331 0.70710678118654752440084436210485 0
c p weight 336 0 0
c p weight -336 1 0
c p weight 337 1 0
c p weight -337 1 0
c p weight 364 -1 0
c p weight -364 1 0
c p weight 367 0.5 0
367 0
-13 0
-11 0
-9 0
-7 0
-5 0
-3 0
-1 0
14 -13 11 0
14 -13 12 0
-14 13 11 0
-14 13 12 0
14 13 -11 -12 0
-14 -13 -11 -12 0
15 11 -12 0
15 -11 12 0
-15 11 12 0
-15 -11 -12 0
16 17 -14 0
16 -14 15 0
-16 17 14 0
-16 14 15 0
16 -14 -11 0
-16 14 -11 0
16 -17 14 11 -15 0
-16 -17 -14 11 -15 0
17 -11 15 0
-17 11 15 0
-18 15 0
17 -18 -11 0
-17 -18 11 0
17 18 11 -15 0
-17 18 -11 -15 0
-19 15 0
17 -19 11 0
-17 -19 -11 0
17 19 -11 -15 0
-17 19 11 -15 0
20 -16 17 0
20 -16 15 0
-20 16 17 0
-20 16 15 0
20 16 -17 -15 0
-20 -16 -17 -15 0
21 17 -15 0
21 -17 15 0
-21 17 15 0
-21 -17 -15 0
22 -20 17 0
22 -20 10 0
-22 20 17 0
-22 20 10 0
22 -20 9 -21 0
22 -20 -9 21 0
-22 20 9 -21 0
-22 20 -9 21 0
22 20 -17 9 21 -10 0
22 20 -17 -9 -21 -10 0
-22 -20 -17 9 21 -10 0
-22 -20 -17 -9 -21 -10 0
24 17 -9 0
24 -17 9 0
-24 17 9 0
-24 -17 -9 0
23 21 -10 0
23 -21 10 0
-23 21 10 0
-23 -21 -10 0
25 -22 24 0
25 -22 8 0
-25 22 24 0
-25 22 8 0
25 -22 7 -10 0
25 -22 -7 10 0
-25 22 7 -10 0
-25 22 -7 10 0
25 22 -24 7 10 -8 0
25 22 -24 -7 -10 -8 0
-25 -22 -24 7 10 -8 0
-25 -22 -24 -7 -10 -8 0
27 24 -7 0
27 -24 7 0
-27 24 7 0
-27 -24 -7 0
26 10 -8 0
26 -10 8 0
-26 10 8 0
-26 -10 -8 0
28 -25 27 0
28 -25 6 0
-28 25 27 0
-28 25 6 0
28 -25 5 -8 0
28 -25 -5 8 0
-28 25 5 -8 0
-28 25 -5 8 0
28 25 -27 5 8 -6 0
28 25 -27 -5 -8 -6 0
-28 -25 -27 5 8 -6 0
-28 -25 -27 -5 -8 -6 0
30 27 -5 0
30 -27 5 0
-30 27 5 0
-30 -27 -5 0
29 8 -6 0
29 -8 6 0
-29 8 6 0
-29 -8 -6 0
31 -28 30 0
31 -28 4 0
-31 28 30 0
-31 28 4 0
31 -28 3 -6 0
31 -28 -3 6 0
-31 28 3 -6 0
-31 28 -3 6 0
31 28 -30 3 6 -4 0
31 28 -30 -3 -6 -4 0
-31 -28 -30 3 6 -4 0
-31 -28 -30 -3 -6 -4 0
33 30 -3 0
33 -30 3 0
-33 30 3 0
-33 -30 -3 0
32 6 -4 0
32 -6 4 0
-32 6 4 0
-32 -6 -4 0
34 -31 33 0
34 -31 2 0
-34 31 33 0
-34 31 2 0
34 -31 1 -4 0
34 -31 -1 4 0
-34 31 1 -4 0
-34 31 -1 4 0
34 31 -33 1 4 -2 0
34 31 -33 -1 -4 -2 0
-34 -31 -33 1 4 -2 0
-34 -31 -33 -1 -4 -2 0
36 33 -1 0
36 -33 1 0
-36 33 1 0
-36 -33 -1 0
35 4 -2 0
35 -4 2 0
-35 4 2 0
-35 -4 -2 0
37 -34 17 0
37 -34 23 0
-37 34 17 0
-37 34 23 0
37 34 -17 -23 0
-37 -34 -17 -23 0
38 17 -23 0
38 -17 23 0
-38 17 23 0
-38 -17 -23 0
39 40 -37 0
39 -37 38 0
-39 40 37 0
-39 37 38 0
39 -37 -17 0
-39 37 -17 0
39 -40 37 17 -38 0
-39 -40 -37 17 -38 0
40 -17 38 0
-40 17 38 0
-41 38 0
40 -41 -17 0
-40 -41 17 0
40 41 17 -38 0
-40 41 -17 -38 0
-42 38 0
40 -42 17 0
-40 -42 -17 0
40 42 -17 -38 0
-40 42 17 -38 0
43 -39 40 0
43 -39 38 0
-43 39 40 0
-43 39 38 0
43 39 -40 -38 0
-43 -39 -40 -38 0
44 40 -38 0
44 -40 38 0
-44 40 38 0
-44 -40 -38 0
45 -43 40 0
45 -43 44 0
-45 43 40 0
-45 43 44 0
45 -46 -43 0
-45 -46 43 0
45 46 43 -40 -44 0
-45 46 -43 -40 -44 0
46 40 -44 0
-46 40 44 0
47 -40 0
-47 40 0
48 -45 40 0
48 -45 26 0
-48 45 40 0
-48 45 26 0
48 -45 24 -46 0
48 -45 -24 46 0
-48 45 24 -46 0
-48 45 -24 46 0
48 45 -40 24 46 -26 0
48 45 -40 -24 -46 -26 0
-48 -45 -40 24 46 -26 0
-48 -45 -40 -24 -46 -26 0
50 40 -24 0
50 -40 24 0
-50 40 24 0
-50 -40 -24 0
49 46 -26 0
49 -46 26 0
-49 46 26 0
-49 -46 -26 0
51 52 -48 0
51 -48 50 0
-51 52 48 0
-51 48 50 0
51 -48 -26 0
-51 48 -26 0
51 -52 48 -50 26 0
-51 -52 -48 -50 26 0
52 50 -26 0
-52 50 26 0
53 -50 0
-53 50 0
54 -51 40 0
54 -51 52 0
-54 51 40 0
-54 51 52 0
54 -51 50 -49 0
54 -51 -50 49 0
-54 51 50 -49 0
-54 51 -50 49 0
54 51 -40 50 49 -52 0
54 51 -40 -50 -49 -52 0
-54 -51 -40 50 49 -52 0
-54 -51 -40 -50 -49 -52 0
56 40 -50 0
56 -40 50 0
-56 40 50 0
-56 -40 -50 0
55 49 -52 0
55 -49 52 0
-55 49 52 0
-55 -49 -52 0
57 -54 56 0
57 -54 52 0
-57 54 56 0
-57 54 52 0
57 -58 -54 0
-57 -58 54 0
57 58 54 -56 -52 0
-57 58 -54 -56 -52 0
58 56 -52 0
-58 56 52 0
59 -56 0
-59 56 0
60 -57 56 0
60 -57 58 0
-60 57 56 0
-60 57 58 0
60 57 -56 -58 0
-60 -57 -56 -58 0
61 56 -58 0
61 -56 58 0
-61 56 58 0
-61 -56 -58 0
62 63 -60 0
62 -60 61 0
-62 63 60 0
-62 60 61 0
62 -60 -56 0
-62 60 -56 0
62 -63 60 56 -61 0
-62 -63 -60 56 -61 0
63 -56 61 0
-63 56 61 0
-64 61 0
63 -64 -56 0
-63 -64 56 0
63 64 56 -61 0
-63 64 -56 -61 0
-65 61 0
63 -65 56 0
-63 -65 -56 0
63 65 -56 -61 0
-63 65 56 -61 0
66 -62 63 0
66 -62 61 0
-66 62 63 0
-66 62 61 0
66 62 -63 -61 0
-66 -62 -63 -61 0
67 63 -61 0
67 -63 61 0
-67 63 61 0
-67 -63 -61 0
68 -66 63 0
68 -66 67 0
-68 66 63 0
-68 66 67 0
68 -69 -66 0
-68 -69 66 0
68 69 66 -63 -67 0
-68 69 -66 -63 -67 0
69 63 -67 0
-69 63 67 0
70 -63 0
-70 63 0
71 -68 40 0
71 -68 55 0
-71 68 40 0
-71 68 55 0
71 -72 -68 0
-71 -72 68 0
71 72 68 -40 -55 0
-71 72 -68 -40 -55 0
72 40 -55 0
-72 40 55 0
-73 40 0
72 -73 -55 0
-72 -73 55 0
72 73 -40 55 0
-72 73 -40 -55 0
-74 40 0
72 -74 55 0
-72 -74 -55 0
72 74 -40 -55 0
-72 74 -40 55 0
75 -71 40 0
75 -71 29 0
-75 71 40 0
-75 71 29 0
75 -71 27 -72 0
75 -71 -27 72 0
-75 71 27 -72 0
-75 71 -27 72 0
75 71 -40 27 72 -29 0
75 71 -40 -27 -72 -29 0
-75 -71 -40 27 72 -29 0
-75 -71 -40 -27 -72 -29 0
77 40 -27 0
77 -40 27 0
-77 40 27 0
-77 -40 -27 0
76 72 -29 0
76 -72 29 0
-76 72 29 0
-76 -72 -29 0
78 -75 77 0
78 -75 29 0
-78 75 77 0
-78 75 29 0
78 -79 -75 0
-78 -79 75 0
78 79 75 -77 -29 0
-78 79 -75 -77 -29 0
79 77 -29 0
-79 77 29 0
-80 77 0
79 -80 -29 0
-79 -80 29 0
79 80 -77 29 0
-79 80 -77 -29 0
-81 77 0
79 -81 29 0
-79 -81 -29 0
79 81 -77 -29 0
-79 81 -77 29 0
82 -78 40 0
82 -78 79 0
-82 78 40 0
-82 78 79 0
82 -78 77 -76 0
82 -78 -77 76 0
-82 78 77 -76 0
-82 78 -77 76 0
82 78 -40 77 76 -79 0
82 78 -40 -77 -76 -79 0
-82 -78 -40 77 76 -79 0
-82 -78 -40 -77 -76 -79 0
84 40 -77 0
84 -40 77 0
-84 40 77 0
-84 -40 -77 0
83 76 -79 0
83 -76 79 0
-83 76 79 0
-83 -76 -79 0
85 -82 84 0
85 -82 79 0
-85 82 84 0
-85 82 79 0
85 -86 -82 0
-85 -86 82 0
85 86 82 -84 -79 0
-85 86 -82 -84 -79 0
86 84 -79 0
-86 84 79 0
-87 84 0
86 -87 -79 0
-86 -87 79 0
86 87 -84 79 0
-86 87 -84 -79 0
-88 84 0
86 -88 79 0
-86 -88 -79 0
86 88 -84 -79 0
-86 88 -84 79 0
89 -85 63 0
89 -85 86 0
-89 85 63 0
-89 85 86 0
89 -85 84 -69 0
89 -85 -84 69 0
-89 85 84 -69 0
-89 85 -84 69 0
89 85 -63 84 69 -86 0
89 85 -63 -84 -69 -86 0
-89 -85 -63 84 69 -86 0
-89 -85 -63 -84 -69 -86 0
91 63 -84 0
91 -63 84 0
-91 63 84 0
-91 -63 -84 0
90 69 -86 0
90 -69 86 0
-90 69 86 0
-90 -69 -86 0
92 93 -89 0
92 -89 91 0
-92 93 89 0
-92 89 91 0
92 -89 -86 0
-92 89 -86 0
92 -93 89 -91 86 0
-92 -93 -89 -91 86 0
93 91 -86 0
-93 91 86 0
94 -91 0
-94 91 0
95 -92 63 0
95 -92 93 0
-95 92 63 0
-95 92 93 0
95 -92 91 -90 0
95 -92 -91 90 0
-95 92 91 -90 0
-95 92 -91 90 0
95 92 -63 91 90 -93 0
95 92 -63 -91 -90 -93 0
-95 -92 -63 91 90 -93 0
-95 -92 -63 -91 -90 -93 0
97 63 -91 0
97 -63 91 0
-97 63 91 0
-97 -63 -91 0
96 90 -93 0
96 -90 93 0
-96 90 93 0
-96 -90 -93 0
98 -95 97 0
98 -95 93 0
-98 95 97 0
-98 95 93 0
98 -99 -95 0
-98 -99 95 0
98 99 95 -97 -93 0
-98 99 -95 -97 -93 0
99 97 -93 0
-99 97 93 0
100 -97 0
-100 97 0
101 -98 97 0
101 -98 99 0
-101 98 97 0
-101 98 99 0
101 98 -97 -99 0
-101 -98 -97 -99 0
102 97 -99 0
102 -97 99 0
-102 97 99 0
-102 -97 -99 0
103 104 -101 0
103 -101 102 0
-103 104 101 0
-103 101 102 0
103 -101 -97 0
-103 101 -97 0
103 -104 101 97 -102 0
-103 -104 -101 97 -102 0
104 -97 102 0
-104 97 102 0
-105 102 0
104 -105 -97 0
-104 -105 97 0
104 105 97 -102 0
-104 105 -97 -102 0
-106 102 0
104 -106 97 0
-104 -106 -97 0
104 106 -97 -102 0
-104 106 97 -102 0
107 -103 104 0
107 -103 102 0
-107 103 104 0
-107 103 102 0
107 103 -104 -102 0
-107 -103 -104 -102 0
108 104 -102 0
108 -104 102 0
-108 104 102 0
-108 -104 -102 0
109 -107 104 0
109 -107 108 0
-109 107 104 0
-109 107 108 0
109 -110 -107 0
-109 -110 107 0
109 110 107 -104 -108 0
-109 110 -107 -104 -108 0
110 104 -108 0
-110 104 108 0
111 -104 0
-111 104 0
112 -109 63 0
112 -109 96 0
-112 109 63 0
-112 109 96 0
112 -113 -109 0
-112 -113 109 0
112 113 109 -63 -96 0
-112 113 -109 -63 -96 0
113 63 -96 0
-113 63 96 0
-114 63 0
113 -114 -96 0
-113 -114 96 0
113 114 -63 96 0
-113 114 -63 -96 0
-115 63 0
113 -115 96 0
-113 -115 -96 0
113 115 -63 -96 0
-113 115 -63 96 0
116 -112 40 0
116 -112 83 0
-116 112 40 0
-116 112 83 0
116 -117 -112 0
-116 -117 112 0
116 117 112 -40 -83 0
-116 117 -112 -40 -83 0
117 40 -83 0
-117 40 83 0
-118 40 0
117 -118 -83 0
-117 -118 83 0
117 118 -40 83 0
-117 118 -40 -83 0
-119 40 0
117 -119 83 0
-117 -119 -83 0
117 119 -40 -83 0
-117 119 -40 83 0
120 -116 40 0
120 -116 32 0
-120 116 40 0
-120 116 32 0
120 -116 30 -117 0
120 -116 -30 117 0
-120 116 30 -117 0
-120 116 -30 117 0
120 116 -40 30 117 -32 0
120 116 -40 -30 -117 -32 0
-120 -116 -40 30 117 -32 0
-120 -116 -40 -30 -117 -32 0
122 40 -30 0
122 -40 30 0
-122 40 30 0
-122 -40 -30 0
121 117 -32 0
121 -117 32 0
-121 117 32 0
-121 -117 -32 0
123 -120 122 0
123 -120 32 0
-123 120 122 0
-123 120 32 0
123 -124 -120 0
-123 -124 120 0
123 124 120 -122 -32 0
-123 124 -120 -122 -32 0
124 122 -32 0
-124 122 32 0
-125 122 0
124 -125 -32 0
-124 -125 32 0
124 125 -122 32 0
-124 125 -122 -32 0
-126 122 0
124 -126 32 0
-124 -126 -32 0
124 126 -122 -32 0
-124 126 -122 32 0
127 -123 40 0
127 -123 124 0
-127 123 40 0
-127 123 124 0
127 -123 122 -121 0
127 -123 -122 121 0
-127 123 122 -121 0
-127 123 -122 121 0
127 123 -40 122 121 -124 0
127 123 -40 -122 -121 -124 0
-127 -123 -40 122 121 -124 0
-127 -123 -40 -122 -121 -124 0
129 40 -122 0
129 -40 122 0
-129 40 122 0
-129 -40 -122 0
128 121 -124 0
128 -121 124 0
-128 121 124 0
-128 -121 -124 0
130 -127 129 0
130 -127 124 0
-130 127 129 0
-130 127 124 0
130 -131 -127 0
-130 -131 127 0
130 131 127 -129 -124 0
-130 131 -127 -129 -124 0
131 129 -124 0
-131 129 124 0
-132 129 0
131 -132 -124 0
-131 -132 124 0
131 132 -129 124 0
-131 132 -129 -124 0
-133 129 0
131 -133 124 0
-131 -133 -124 0
131 133 -129 -124 0
-131 133 -129 124 0
134 -130 63 0
134 -130 131 0
-134 130 63 0
-134 130 131 0
134 -130 129 -113 0
134 -130 -129 113 0
-134 130 129 -113 0
-134 130 -129 113 0
134 130 -63 129 113 -131 0
134 130 -63 -129 -113 -131 0
-134 -130 -63 129 113 -131 0
-134 -130 -63 -129 -113 -131 0
136 63 -129 0
136 -63 129 0
-136 63 129 0
-136 -63 -129 0
135 113 -131 0
135 -113 131 0
-135 113 131 0
-135 -113 -131 0
137 -134 136 0
137 -134 131 0
-137 134 136 0
-137 134 131 0
137 -138 -134 0
-137 -138 134 0
137 138 134 -136 -131 0
-137 138 -134 -136 -131 0
138 136 -131 0
-138 136 131 0
-139 136 0
138 -139 -131 0
-138 -139 131 0
138 139 -136 131 0
-138 139 -136 -131 0
-140 136 0
138 -140 131 0
-138 -140 -131 0
138 140 -136 -131 0
-138 140 -136 131 0
141 -137 63 0
141 -137 138 0
-141 137 63 0
-141 137 138 0
141 -137 136 -135 0
141 -137 -136 135 0
-141 137 136 -135 0
-141 137 -136 135 0
141 137 -63 136 135 -138 0
141 137 -63 -136 -135 -138 0
-141 -137 -63 136 135 -138 0
-141 -137 -63 -136 -135 -138 0
143 63 -136 0
143 -63 136 0
-143 63 136 0
-143 -63 -136 0
142 135 -138 0
142 -135 138 0
-142 135 138 0
-142 -135 -138 0
144 -141 143 0
144 -141 138 0
-144 141 143 0
-144 141 138 0
144 -145 -141 0
-144 -145 141 0
144 145 141 -143 -138 0
-144 145 -141 -143 -138 0
145 143 -138 0
-145 143 138 0
-146 143 0
145 -146 -138 0
-145 -146 138 0
145 146 -143 138 0
-145 146 -143 -138 0
-147 143 0
145 -147 138 0
-145 -147 -138 0
145 147 -143 -138 0
-145 147 -143 138 0
148 -144 104 0
148 -144 145 0
-148 144 104 0
-148 144 145 0
148 -144 143 -110 0
148 -144 -143 110 0
-148 144 143 -110 0
-148 144 -143 110 0
148 144 -104 143 110 -145 0
148 144 -104 -143 -110 -145 0
-148 -144 -104 143 110 -145 0
-148 -144 -104 -143 -110 -145 0
150 104 -143 0
150 -104 143 0
-150 104 143 0
-150 -104 -143 0
149 110 -145 0
149 -110 145 0
-149 110 145 0
-149 -110 -145 0
151 152 -148 0
151 -148 150 0
-151 152 148 0
-151 148 150 0
151 -148 -145 0
-151 148 -145 0
151 -152 148 -150 145 0
-151 -152 -148 -150 145 0
152 150 -145 0
-152 150 145 0
153 -150 0
-153 150 0
154 -151 104 0
154 -151 152 0
-154 151 104 0
-154 151 152 0
154 -151 150 -149 0
154 -151 -150 149 0
-154 151 150 -149 0
-154 151 -150 149 0
154 151 -104 150 149 -152 0
154 151 -104 -150 -149 -152 0
-154 -151 -104 150 149 -152 0
-154 -151 -104 -150 -149 -152 0
156 104 -150 0
156 -104 150 0
-156 104 150 0
-156 -104 -150 0
155 149 -152 0
155 -149 152 0
-155 149 152 0
-155 -149 -152 0
157 -154 156 0
157 -154 152 0
-157 154 156 0
-157 154 152 0
157 -158 -154 0
-157 -158 154 0
157 158 154 -156 -152 0
-157 158 -154 -156 -152 0
158 156 -152 0
-158 156 152 0
159 -156 0
-159 156 0
160 -157 156 0
160 -157 158 0
-160 157 156 0
-160 157 158 0
160 157 -156 -158 0
-160 -157 -156 -158 0
161 156 -158 0
161 -156 158 0
-161 156 158 0
-161 -156 -158 0
162 163 -160 0
162 -160 161 0
-162 163 160 0
-162 160 161 0
162 -160 -156 0
-162 160 -156 0
162 -163 160 156 -161 0
-162 -163 -160 156 -161 0
163 -156 161 0
-163 156 161 0
-164 161 0
163 -164 -156 0
-163 -164 156 0
163 164 156 -161 0
-163 164 -156 -161 0
-165 161 0
163 -165 156 0
-163 -165 -156 0
163 165 -156 -161 0
-163 165 156 -161 0
166 -162 163 0
166 -162 161 0
-166 162 163 0
-166 162 161 0
166 162 -163 -161 0
-166 -162 -163 -161 0
167 163 -161 0
167 -163 161 0
-167 163 161 0
-167 -163 -161 0
168 -166 163 0
168 -166 167 0
-168 166 163 0
-168 166 167 0
168 -169 -166 0
-168 -169 166 0
168 169 166 -163 -167 0
-168 169 -166 -163 -167 0
169 163 -167 0
-169 163 167 0
170 -163 0
-170 163 0
171 -168 104 0
171 -168 155 0
-171 168 104 0
-171 168 155 0
171 -172 -168 0
-171 -172 168 0
171 172 168 -104 -155 0
-171 172 -168 -104 -155 0
172 104 -155 0
-172 104 155 0
-173 104 0
172 -173 -155 0
-172 -173 155 0
172 173 -104 155 0
-172 173 -104 -155 0
-174 104 0
172 -174 155 0
-172 -174 -155 0
172 174 -104 -155 0
-172 174 -104 155 0
175 -171 63 0
175 -171 142 0
-175 171 63 0
-175 171 142 0
175 -176 -171 0
-175 -176 171 0
175 176 171 -63 -142 0
-175 176 -171 -63 -142 0
176 63 -142 0
-176 63 142 0
-177 63 0
176 -177 -142 0
-176 -177 142 0
176 177 -63 142 0
-176 177 -63 -142 0
-178 63 0
176 -178 142 0
-176 -178 -142 0
176 178 -63 -142 0
-176 178 -63 142 0
179 -175 40 0
179 -175 128 0
-179 175 40 0
-179 175 128 0
179 -180 -175 0
-179 -180 175 0
179 180 175 -40 -128 0
-179 180 -175 -40 -128 0
180 40 -128 0
-180 40 128 0
-181 40 0
180 -181 -128 0
-180 -181 128 0
180 181 -40 128 0
-180 181 -40 -128 0
-182 40 0
180 -182 128 0
-180 -182 -128 0
180 182 -40 -128 0
-180 182 -40 128 0
183 -179 40 0
183 -179 35 0
-183 179 40 0
-183 179 35 0
183 -179 33 -180 0
183 -179 -33 180 0
-183 179 33 -180 0
-183 179 -33 180 0
183 179 -40 33 180 -35 0
183 179 -40 -33 -180 -35 0
-183 -179 -40 33 180 -35 0
-183 -179 -40 -33 -180 -35 0
185 40 -33 0
185 -40 33 0
-185 40 33 0
-185 -40 -33 0
184 180 -35 0
184 -180 35 0
-184 180 35 0
-184 -180 -35 0
186 -183 185 0
186 -183 35 0
-186 183 185 0
-186 183 35 0
186 -187 -183 0
-186 -187 183 0
186 187 183 -185 -35 0
-186 187 -183 -185 -35 0
187 185 -35 0
-187 185 35 0
-188 185 0
187 -188 -35 0
-187 -188 35 0
187 188 -185 35 0
-187 188 -185 -35 0
-189 185 0
187 -189 35 0
-187 -189 -35 0
187 189 -185 -35 0
-187 189 -185 35 0
190 -186 40 0
190 -186 187 0
-190 186 40 0
-190 186 187 0
190 -186 185 -184 0
190 -186 -185 184 0
-190 186 185 -184 0
-190 186 -185 184 0
190 186 -40 185 184 -187 0
190 186 -40 -185 -184 -187 0
-190 -186 -40 185 184 -187 0
-190 -186 -40 -185 -184 -187 0
192 40 -185 0
192 -40 185 0
-192 40 185 0
-192 -40 -185 0
191 184 -187 0
191 -184 187 0
-191 184 187 0
-191 -184 -187 0
193 -190 192 0
193 -190 187 0
-193 190 192 0
-193 190 187 0
193 -194 -190 0
-193 -194 190 0
193 194 190 -192 -187 0
-193 194 -190 -192 -187 0
194 192 -187 0
-194 192 187 0
-195 192 0
194 -195 -187 0
-194 -195 187 0
194 195 -192 187 0
-194 195 -192 -187 0
-196 192 0
194 -196 187 0
-194 -196 -187 0
194 196 -192 -187 0
-194 196 -192 187 0
197 -193 63 0
197 -193 194 0
-197 193 63 0
-197 193 194 0
197 -193 192 -176 0
197 -193 -192 176 0
-197 193 192 -176 0
-197 193 -192 176 0
197 193 -63 192 176 -194 0
197 193 -63 -192 -176 -194 0
-197 -193 -63 192 176 -194 0
-197 -193 -63 -192 -176 -194 0
199 63 -192 0
199 -63 192 0
-199 63 192 0
-199 -63 -192 0
198 176 -194 0
198 -176 194 0
-198 176 194 0
-198 -176 -194 0
200 -197 199 0
200 -197 194 0
-200 197 199 0
-200 197 194 0
200 -201 -197 0
-200 -201 197 0
200 201 197 -199 -194 0
-200 201 -197 -199 -194 0
201 199 -194 0
-201 199 194 0
-202 199 0
201 -202 -194 0
-201 -202 194 0
201 202 -199 194 0
-201 202 -199 -194 0
-203 199 0
201 -203 194 0
-201 -203 -194 0
201 203 -199 -194 0
-201 203 -199 194 0
204 -200 63 0
204 -200 201 0
-204 200 63 0
-204 200 201 0
204 -200 199 -198 0
204 -200 -199 198 0
-204 200 199 -198 0
-204 200 -199 198 0
204 200 -63 199 198 -201 0
204 200 -63 -199 -198 -201 0
-204 -200 -63 199 198 -201 0
-204 -200 -63 -199 -198 -201 0
206 63 -199 0
206 -63 199 0
-206 63 199 0
-206 -63 -199 0
205 198 -201 0
205 -198 201 0
-205 198 201 0
-205 -198 -201 0
207 -204 206 0
207 -204 201 0
-207 204 206 0
-207 204 201 0
207 -208 -204 0
-207 -208 204 0
207 208 204 -206 -201 0
-207 208 -204 -206 -201 0
208 206 -201 0
-208 206 201 0
-209 206 0
208 -209 -201 0
-208 -209 201 0
208 209 -206 201 0
-208 209 -206 -201 0
-210 206 0
208 -210 201 0
-208 -210 -201 0
208 210 -206 -201 0
-208 210 -206 201 0
211 -207 104 0
211 -207 208 0
-211 207 104 0
-211 207 208 0
211 -207 206 -172 0
211 -207 -206 172 0
-211 207 206 -172 0
-211 207 -206 172 0
211 207 -104 206 172 -208 0
211 207 -104 -206 -172 -208 0
-211 -207 -104 206 172 -208 0
-211 -207 -104 -206 -172 -208 0
213 104 -206 0
213 -104 206 0
-213 104 206 0
-213 -104 -206 0
212 172 -208 0
212 -172 208 0
-212 172 208 0
-212 -172 -208 0
214 -211 213 0
214 -211 208 0
-214 211 213 0
-214 211 208 0
214 -215 -211 0
-214 -215 211 0
214 215 211 -213 -208 0
-214 215 -211 -213 -208 0
215 213 -208 0
-215 213 208 0
-216 213 0
215 -216 -208 0
-215 -216 208 0
215 216 -213 208 0
-215 216 -213 -208 0
-217 213 0
215 -217 208 0
-215 -217 -208 0
215 217 -213 -208 0
-215 217 -213 208 0
218 -214 104 0
218 -214 215 0
-218 214 104 0
-218 214 215 0
218 -214 213 -212 0
218 -214 -213 212 0
-218 214 213 -212 0
-218 214 -213 212 0
218 214 -104 213 212 -215 0
218 214 -104 -213 -212 -215 0
-218 -214 -104 213 212 -215 0
-218 -214 -104 -213 -212 -215 0
220 104 -213 0
220 -104 213 0
-220 104 213 0
-220 -104 -213 0
219 212 -215 0
219 -212 215 0
-219 212 215 0
-219 -212 -215 0
221 -218 220 0
221 -218 215 0
-221 218 220 0
-221 218 215 0
221 -222 -218 0
-221 -222 218 0
221 222 218 -220 -215 0
-221 222 -218 -220 -215 0
222 220 -215 0
-222 220 215 0
-223 220 0
222 -223 -215 0
-222 -223 215 0
222 223 -220 215 0
-222 223 -220 -215 0
-224 220 0
222 -224 215 0
-222 -224 -215 0
222 224 -220 -215 0
-222 224 -220 215 0
225 -221 163 0
225 -221 222 0
-225 221 163 0
-225 221 222 0
225 -221 220 -169 0
225 -221 -220 169 0
-225 221 220 -169 0
-225 221 -220 169 0
225 221 -163 220 169 -222 0
225 221 -163 -220 -169 -222 0
-225 -221 -163 220 169 -222 0
-225 -221 -163 -220 -169 -222 0
227 163 -220 0
227 -163 220 0
-227 163 220 0
-227 -163 -220 0
226 169 -222 0
226 -169 222 0
-226 169 222 0
-226 -169 -222 0
228 229 -225 0
228 -225 227 0
-228 229 225 0
-228 225 227 0
228 -225 -222 0
-228 225 -222 0
228 -229 225 -227 222 0
-228 -229 -225 -227 222 0
229 227 -222 0
-229 227 222 0
230 -227 0
-230 227 0
231 -228 163 0
231 -228 229 0
-231 228 163 0
-231 228 229 0
231 -228 227 -226 0
231 -228 -227 226 0
-231 228 227 -226 0
-231 228 -227 226 0
231 228 -163 227 226 -229 0
231 228 -163 -227 -226 -229 0
-231 -228 -163 227 226 -229 0
-231 -228 -163 -227 -226 -229 0
233 163 -227 0
233 -163 227 0
-233 163 227 0
-233 -163 -227 0
232 226 -229 0
232 -226 229 0
-232 226 229 0
-232 -226 -229 0
234 -231 233 0
234 -231 229 0
-234 231 233 0
-234 231 229 0
234 -235 -231 0
-234 -235 231 0
234 235 231 -233 -229 0
-234 235 -231 -233 -229 0
235 233 -229 0
-235 233 229 0
236 -233 0
-236 233 0
237 -234 233 0
237 -234 235 0
-237 234 233 0
-237 234 235 0
237 234 -233 -235 0
-237 -234 -233 -235 0
238 233 -235 0
238 -233 235 0
-238 233 235 0
-238 -233 -235 0
239 240 -237 0
239 -237 238 0
-239 240 237 0
-239 237 238 0
239 -237 -233 0
-239 237 -233 0
239 -240 237 233 -238 0
-239 -240 -237 233 -238 0
240 -233 238 0
-240 233 238 0
-241 238 0
240 -241 -233 0
-240 -241 233 0
240 241 233 -238 0
-240 241 -233 -238 0
-242 238 0
240 -242 233 0
-240 -242 -233 0
240 242 -233 -238 0
-240 242 233 -238 0
243 -239 240 0
243 -239 238 0
-243 239 240 0
-243 239 238 0
243 239 -240 -238 0
-243 -239 -240 -238 0
244 240 -238 0
244 -240 238 0
-244 240 238 0
-244 -240 -238 0
245 -243 240 0
245 -243 244 0
-245 243 240 0
-245 243 244 0
245 -246 -243 0
-245 -246 243 0
245 246 243 -240 -244 0
-245 246 -243 -240 -244 0
246 240 -244 0
-246 240 244 0
247 -240 0
-247 240 0
248 -245 163 0
248 -245 232 0
-248 245 163 0
-248 245 232 0
248 -249 -245 0
-248 -249 245 0
248 249 245 -163 -232 0
-248 249 -245 -163 -232 0
249 163 -232 0
-249 163 232 0
-250 163 0
249 -250 -232 0
-249 -250 232 0
249 250 -163 232 0
-249 250 -163 -232 0
-251 163 0
249 -251 232 0
-249 -251 -232 0
249 251 -163 -232 0
-249 251 -163 232 0
252 -248 104 0
252 -248 219 0
-252 248 104 0
-252 248 219 0
252 -253 -248 0
-252 -253 248 0
252 253 248 -104 -219 0
-252 253 -248 -104 -219 0
253 104 -219 0
-253 104 219 0
-254 104 0
253 -254 -219 0
-253 -254 219 0
253 254 -104 219 0
-253 254 -104 -219 0
-255 104 0
253 -255 219 0
-253 -255 -219 0
253 255 -104 -219 0
-253 255 -104 219 0
256 -252 63 0
256 -252 205 0
-256 252 63 0
-256 252 205 0
256 -257 -252 0
-256 -257 252 0
256 257 252 -63 -205 0
-256 257 -252 -63 -205 0
257 63 -205 0
-257 63 205 0
-258 63 0
257 -258 -205 0
-257 -258 205 0
257 258 -63 205 0
-257 258 -63 -205 0
-259 63 0
257 -259 205 0
-257 -259 -205 0
257 259 -63 -205 0
-257 259 -63 205 0
260 -256 40 0
260 -256 191 0
-260 256 40 0
-260 256 191 0
260 -261 -256 0
-260 -261 256 0
260 261 256 -40 -191 0
-260 261 -256 -40 -191 0
261 40 -191 0
-261 40 191 0
-262 40 0
261 -262 -191 0
-261 -262 191 0
261 262 -40 191 0
-261 262 -40 -191 0
-263 40 0
261 -263 191 0
-261 -263 -191 0
261 263 -40 -191 0
-261 263 -40 191 0
264 -260 40 0
264 -260 2 0
-264 260 40 0
-264 260 2 0
264 -260 36 -261 0
264 -260 -36 261 0
-264 260 36 -261 0
-264 260 -36 261 0
264 260 -40 36 261 -2 0
264 260 -40 -36 -261 -2 0
-264 -260 -40 36 261 -2 0
-264 -260 -40 -36 -261 -2 0
266 40 -36 0
266 -40 36 0
-266 40 36 0
-266 -40 -36 0
265 261 -2 0
265 -261 2 0
-265 261 2 0
-265 -261 -2 0
267 -264 266 0
267 -264 2 0
-267 264 266 0
-267 264 2 0
267 -268 -264 0
-267 -268 264 0
267 268 264 -266 -2 0
-267 268 -264 -266 -2 0
268 266 -2 0
-268 266 2 0
-269 266 0
268 -269 -2 0
-268 -269 2 0
268 269 -266 2 0
-268 269 -266 -2 0
-270 266 0
268 -270 2 0
-268 -270 -2 0
268 270 -266 -2 0
-268 270 -266 2 0
271 -267 40 0
271 -267 268 0
-271 267 40 0
-271 267 268 0
271 -267 266 -265 0
271 -267 -266 265 0
-271 267 266 -265 0
-271 267 -266 265 0
271 267 -40 266 265 -268 0
271 267 -40 -266 -265 -268 0
-271 -267 -40 266 265 -268 0
-271 -267 -40 -266 -265 -268 0
273 40 -266 0
273 -40 266 0
-273 40 266 0
-273 -40 -266 0
272 265 -268 0
272 -265 268 0
-272 265 268 0
-272 -265 -268 0
274 -271 273 0
274 -271 268 0
-274 271 273 0
-274 271 268 0
274 -275 -271 0
-274 -275 271 0
274 275 271 -273 -268 0
-274 275 -271 -273 -268 0
275 273 -268 0
-275 273 268 0
-276 273 0
275 -276 -268 0
-275 -276 268 0
275 276 -273 268 0
-275 276 -273 -268 0
-277 273 0
275 -277 268 0
-275 -277 -268 0
275 277 -273 -268 0
-275 277 -273 268 0
278 -274 63 0
278 -274 275 0
-278 274 63 0
-278 274 275 0
278 -274 273 -257 0
278 -274 -273 257 0
-278 274 273 -257 0
-278 274 -273 257 0
278 274 -63 273 257 -275 0
278 274 -63 -273 -257 -275 0
-278 -274 -63 273 257 -275 0
-278 -274 -63 -273 -257 -275 0
280 63 -273 0
280 -63 273 0
-280 63 273 0
-280 -63 -273 0
279 257 -275 0
279 -257 275 0
-279 257 275 0
-279 -257 -275 0
281 -278 280 0
281 -278 275 0
-281 278 280 0
-281 278 275 0
281 -282 -278 0
-281 -282 278 0
281 282 278 -280 -275 0
-281 282 -278 -280 -275 0
282 280 -275 0
-282 280 275 0
-283 280 0
282 -283 -275 0
-282 -283 275 0
282 283 -280 275 0
-282 283 -280 -275 0
-284 280 0
282 -284 275 0
-282 -284 -275 0
282 284 -280 -275 0
-282 284 -280 275 0
285 -281 63 0
285 -281 282 0
-285 281 63 0
-285 281 282 0
285 -281 280 -279 0
285 -281 -280 279 0
-285 281 280 -279 0
-285 281 -280 279 0
285 281 -63 280 279 -282 0
285 281 -63 -280 -279 -282 0
-285 -281 -63 280 279 -282 0
-285 -281 -63 -280 -279 -282 0
287 63 -280 0
287 -63 280 0
-287 63 280 0
-287 -63 -280 0
286 279 -282 0
286 -279 282 0
-286 279 282 0
-286 -279 -282 0
288 -285 287 0
288 -285 282 0
-288 285 287 0
-288 285 282 0
288 -289 -285 0
-288 -289 285 0
288 289 285 -287 -282 0
-288 289 -285 -287 -282 0
289 287 -282 0
-289 287 282 0
-290 287 0
289 -290 -282 0
-289 -290 282 0
289 290 -287 282 0
-289 290 -287 -282 0
-291 287 0
289 -291 282 0
-289 -291 -282 0
289 291 -287 -282 0
-289 291 -287 282 0
292 -288 104 0
292 -288 289 0
-292 288 104 0
-292 288 289 0
292 -288 287 -253 0
292 -288 -287 253 0
-292 288 287 -253 0
-292 288 -287 253 0
292 288 -104 287 253 -289 0
292 288 -104 -287 -253 -289 0
-292 -288 -104 287 253 -289 0
-292 -288 -104 -287 -253 -289 0
294 104 -287 0
294 -104 287 0
-294 104 287 0
-294 -104 -287 0
293 253 -289 0
293 -253 289 0
-293 253 289 0
-293 -253 -289 0
295 -292 294 0
295 -292 289 0
-295 292 294 0
-295 292 289 0
295 -296 -292 0
-295 -296 292 0
295 296 292 -294 -289 0
-295 296 -292 -294 -289 0
296 294 -289 0
-296 294 289 0
-297 294 0
296 -297 -289 0
-296 -297 289 0
296 297 -294 289 0
-296 297 -294 -289 0
-298 294 0
296 -298 289 0
-296 -298 -289 0
296 298 -294 -289 0
-296 298 -294 289 0
299 -295 104 0
299 -295 296 0
-299 295 104 0
-299 295 296 0
299 -295 294 -293 0
299 -295 -294 293 0
-299 295 294 -293 0
-299 295 -294 293 0
299 295 -104 294 293 -296 0
299 295 -104 -294 -293 -296 0
-299 -295 -104 294 293 -296 0
-299 -295 -104 -294 -293 -296 0
301 104 -294 0
301 -104 294 0
-301 104 294 0
-301 -104 -294 0
300 293 -296 0
300 -293 296 0
-300 293 296 0
-300 -293 -296 0
302 -299 301 0
302 -299 296 0
-302 299 301 0
-302 299 296 0
302 -303 -299 0
-302 -303 299 0
302 303 299 -301 -296 0
-302 303 -299 -301 -296 0
303 301 -296 0
-303 301 296 0
-304 301 0
303 -304 -296 0
-303 -304 296 0
303 304 -301 296 0
-303 304 -301 -296 0
-305 301 0
303 -305 296 0
-303 -305 -296 0
303 305 -301 -296 0
-303 305 -301 296 0
306 -302 163 0
306 -302 303 0
-306 302 163 0
-306 302 303 0
306 -302 301 -249 0
306 -302 -301 249 0
-306 302 301 -249 0
-306 302 -301 249 0
306 302 -163 301 249 -303 0
306 302 -163 -301 -249 -303 0
-306 -302 -163 301 249 -303 0
-306 -302 -163 -301 -249 -303 0
308 163 -301 0
308 -163 301 0
-308 163 301 0
-308 -163 -301 0
307 249 -303 0
307 -249 303 0
-307 249 303 0
-307 -249 -303 0
309 -306 308 0
309 -306 303 0
-309 306 308 0
-309 306 303 0
309 -310 -306 0
-309 -310 306 0
309 310 306 -308 -303 0
-309 310 -306 -308 -303 0
310 308 -303 0
-310 308 303 0
-311 308 0
310 -311 -303 0
-310 -311 303 0
310 311 -308 303 0
-310 311 -308 -303 0
-312 308 0
310 -312 303 0
-310 -312 -303 0
310 312 -308 -303 0
-310 312 -308 303 0
313 -309 163 0
313 -309 310 0
-313 309 163 0
-313 309 310 0
313 -309 308 -307 0
313 -309 -308 307 0
-313 309 308 -307 0
-313 309 -308 307 0
313 309 -163 308 307 -310 0
313 309 -163 -308 -307 -310 0
-313 -309 -163 308 307 -310 0
-313 -309 -163 -308 -307 -310 0
315 163 -308 0
315 -163 308 0
-315 163 308 0
-315 -163 -308 0
314 307 -310 0
314 -307 310 0
-314 307 310 0
-314 -307 -310 0
316 -313 315 0
316 -313 310 0
-316 313 315 0
-316 313 310 0
316 -317 -313 0
-316 -317 313 0
316 317 313 -315 -310 0
-316 317 -313 -315 -310 0
317 315 -310 0
-317 315 310 0
-318 315 0
317 -318 -310 0
-317 -318 310 0
317 318 -315 310 0
-317 318 -315 -310 0
-319 315 0
317 -319 310 0
-317 -319 -310 0
317 319 -315 -310 0
-317 319 -315 310 0
320 -316 240 0
320 -316 317 0
-320 316 240 0
-320 316 317 0
320 -316 315 -246 0
320 -316 -315 246 0
-320 316 315 -246 0
-320 316 -315 246 0
320 316 -240 315 246 -317 0
320 316 -240 -315 -246 -317 0
-320 -316 -240 315 246 -317 0
-320 -316 -240 -315 -246 -317 0
322 240 -315 0
322 -240 315 0
-322 240 315 0
-322 -240 -315 0
321 246 -317 0
321 -246 317 0
-321 246 317 0
-321 -246 -317 0
323 324 -320 0
323 -320 322 0
-323 324 320 0
-323 320 322 0
323 -320 -317 0
-323 320 -317 0
323 -324 320 -322 317 0
-323 -324 -320 -322 317 0
324 322 -317 0
-324 322 317 0
325 -322 0
-325 322 0
326 -323 240 0
326 -323 324 0
-326 323 240 0
-326 323 324 0
326 -323 322 -321 0
326 -323 -322 321 0
-326 323 322 -321 0
-326 323 -322 321 0
326 323 -240 322 321 -324 0
326 323 -240 -322 -321 -324 0
-326 -323 -240 322 321 -324 0
-326 -323 -240 -322 -321 -324 0
328 240 -322 0
328 -240 322 0
-328 240 322 0
-328 -240 -322 0
327 321 -324 0
327 -321 324 0
-327 321 324 0
-327 -321 -324 0
329 -326 328 0
329 -326 324 0
-329 326 328 0
-329 326 324 0
329 -330 -326 0
-329 -330 326 0
329 330 326 -328 -324 0
-329 330 -326 -328 -324 0
330 328 -324 0
-330 328 324 0
331 -328 0
-331 328 0
332 -329 328 0
332 -329 330 0
-332 329 328 0
-332 329 330 0
332 329 -328 -330 0
-332 -329 -328 -330 0
333 328 -330 0
333 -328 330 0
-333 328 330 0
-333 -328 -330 0
334 335 -332 0
334 -332 333 0
-334 335 332 0
-334 332 333 0
334 -332 -328 0
-334 332 -328 0
334 -335 332 328 -333 0
-334 -335 -332 328 -333 0
335 -328 333 0
-335 328 333 0
-336 333 0
335 -336 -328 0
-335 -336 328 0
335 336 328 -333 0
-335 336 -328 -333 0
-337 333 0
335 -337 328 0
-335 -337 -328 0
335 337 -328 -333 0
-335 337 328 -333 0
338 -334 335 0
338 -334 333 0
-338 334 335 0
-338 334 333 0
338 334 -335 -333 0
-338 -334 -335 -333 0
339 335 -333 0
339 -335 333 0
-339 335 333 0
-339 -335 -333 0
340 -338 335 0
340 -338 272 0
-340 338 335 0
-340 338 272 0
340 -338 40 -339 0
340 -338 -40 339 0
-340 338 40 -339 0
-340 338 -40 339 0
340 338 -335 40 339 -272 0
340 338 -335 -40 -339 -272 0
-340 -338 -335 40 339 -272 0
-340 -338 -335 -40 -339 -272 0
342 335 -40 0
342 -335 40 0
-342 335 40 0
-342 -335 -40 0
341 339 -272 0
341 -339 272 0
-341 339 272 0
-341 -339 -272 0
343 -340 240 0
343 -340 286 0
-343 340 240 0
-343 340 286 0
343 -340 63 -327 0
343 -340 -63 327 0
-343 340 63 -327 0
-343 340 -63 327 0
343 340 -240 63 327 -286 0
343 340 -240 -63 -327 -286 0
-343 -340 -240 63 327 -286 0
-343 -340 -240 -63 -327 -286 0
345 240 -63 0
345 -240 63 0
-345 240 63 0
-345 -240 -63 0
344 327 -286 0
344 -327 286 0
-344 327 286 0
-344 -327 -286 0
346 -343 163 0
346 -343 300 0
-346 343 163 0
-346 343 300 0
346 -343 104 -314 0
346 -343 -104 314 0
-346 343 104 -314 0
-346 343 -104 314 0
346 343 -163 104 314 -300 0
346 343 -163 -104 -314 -300 0
-346 -343 -163 104 314 -300 0
-346 -343 -163 -104 -314 -300 0
348 163 -104 0
348 -163 104 0
-348 163 104 0
-348 -163 -104 0
347 314 -300 0
347 -314 300 0
-347 314 300 0
-347 -314 -300 0
349 -346 348 0
349 -346 347 0
-349 346 348 0
-349 346 347 0
349 -346 163 -300 0
349 -346 -163 300 0
-349 346 163 -300 0
-349 346 -163 300 0
349 346 -348 163 300 -347 0
349 346 -348 -163 -300 -347 0
-349 -346 -348 163 300 -347 0
-349 -346 -348 -163 -300 -347 0
351 348 -163 0
351 -348 163 0
-351 348 163 0
-351 -348 -163 0
350 300 -347 0
350 -300 347 0
-350 300 347 0
-350 -300 -347 0
352 -349 351 0
352 -349 350 0
-352 349 351 0
-352 349 350 0
352 -349 348 -347 0
352 -349 -348 347 0
-352 349 348 -347 0
-352 349 -348 347 0
352 349 -351 348 347 -350 0
352 349 -351 -348 -347 -350 0
-352 -349 -351 348 347 -350 0
-352 -349 -351 -348 -347 -350 0
354 351 -348 0
354 -351 348 0
-354 351 348 0
-354 -351 -348 0
353 347 -350 0
353 -347 350 0
-353 347 350 0
-353 -347 -350 0
355 -352 345 0
355 -352 344 0
-355 352 345 0
-355 352 344 0
355 -352 240 -286 0
355 -352 -240 286 0
-355 352 240 -286 0
-355 352 -240 286 0
355 352 -345 240 286 -344 0
355 352 -345 -240 -286 -344 0
-355 -352 -345 240 286 -344 0
-355 -352 -345 -240 -286 -344 0
357 345 -240 0
357 -345 240 0
-357 345 240 0
-357 -345 -240 0
356 286 -344 0
356 -286 344 0
-356 286 344 0
-356 -286 -344 0
358 -355 357 0
358 -355 356 0
-358 355 357 0
-358 355 356 0
358 -355 345 -344 0
358 -355 -345 344 0
-358 355 345 -344 0
-358 355 -345 344 0
358 355 -357 345 344 -356 0
358 355 -357 -345 -344 -356 0
-358 -355 -357 345 344 -356 0
-358 -355 -357 -345 -344 -356 0
360 357 -345 0
360 -357 345 0
-360 357 345 0
-360 -357 -345 0
359 344 -356 0
359 -344 356 0
-359 344 356 0
-359 -344 -356 0
361 -358 342 0
361 -358 341 0
-361 358 342 0
-361 358 341 0
361 -358 335 -272 0
361 -358 -335 272 0
-361 358 335 -272 0
-361 358 -335 272 0
361 358 -342 335 272 -341 0
361 358 -342 -335 -272 -341 0
-361 -358 -342 335 272 -341 0
-361 -358 -342 -335 -272 -341 0
363 342 -335 0
363 -342 335 0
-363 342 335 0
-363 -342 -335 0
362 272 -341 0
362 -272 341 0
-362 272 341 0
-362 -272 -341 0
364 -361 363 0
364 -361 362 0
-364 361 363 0
-364 361 362 0
364 -361 342 -341 0
364 -361 -342 341 0
-364 361 342 -341 0
-364 361 -342 341 0
364 361 -363 342 341 -362 0
364 361 -363 -342 -341 -362 0
-364 -361 -363 342 341 -362 0
-364 -361 -363 -342 -341 -362 0
366 363 -342 0
366 -363 342 0
-366 363 342 0
-366 -363 -342 0
365 341 -362 0
365 -341 362 0
-365 341 362 0
-365 -341 -362 0
-363 0
-357 0
-359 0
-351 0
-353 0
-354 0
-350 0
-360 0
-356 0
-366 0
-362 0
